W=5;
H=4;

MAX_TIME=6;
MAX_TRACKS=4;
SEMAPHORE_SUPPLY=1;

TARGET=(4,5);

TRAINS=[(4,1,RIGHT),(1,4,DOWN)];
DECOYS=[];

INIT_POS=[
(1,4,STRAIGHT_TD),
(2,4,STRAIGHT_TD),
(4,1,STRAIGHT_RL),
(4,5,STRAIGHT_RL),
];
TUNNEL_PAIRS=[];

GATES=[];
ACTIVATIONS=[];

DSWITCHES=[];
STATIONS=[];
